p cnf 304 1098
c t mc
5 -3 0
5 4 0
3 -4 -5 0
6 2 0
6 -5 0
-2 5 -6 0
-7 1 0
-7 -6 0
-1 6 7 0
10 -8 0
10 9 0
8 -9 -10 0
-11 4 -12 0
11 -4 -12 0
-11 -4 12 0
11 4 12 0
-13 10 0
-13 12 0
-10 -12 13 0
-15 -13 0
-15 14 0
13 -14 15 0
9 -10 -16 0
-9 10 -16 0
9 10 16 0
-9 -10 16 0
-16 -5 -17 0
16 5 -17 0
-16 5 17 0
16 -5 17 0
9 18 -19 0
-9 -18 -19 0
9 -18 19 0
-9 18 19 0
-20 -17 0
-20 19 0
17 -19 20 0
-21 15 0
-21 20 0
-15 -20 21 0
22 7 0
22 -21 0
-7 21 -22 0
-24 -23 0
-24 -19 0
23 19 24 0
-27 25 0
-27 26 0
-25 -26 27 0
-24 27 -28 0
24 -27 -28 0
-24 -27 28 0
24 27 28 0
-29 23 0
-29 28 0
-23 -28 29 0
-31 4 0
-31 -4 0
-32 -30 0
-32 31 0
30 -31 32 0
-33 32 0
-33 -19 0
-32 19 33 0
-29 33 -34 0
29 -33 -34 0
-29 -33 34 0
29 33 34 0
35 -1 0
35 24 0
1 -24 -35 0
-38 -3 0
-38 -37 0
3 37 38 0
36 38 -39 0
-36 -38 -39 0
36 -38 39 0
-36 38 39 0
-40 -35 0
-40 39 0
35 -39 40 0
41 34 0
41 -40 0
-34 40 -41 0
-42 -22 0
-42 -41 0
22 41 42 0
-44 29 0
-44 43 0
-29 -43 44 0
44 -28 -45 0
-44 28 -45 0
44 28 45 0
-44 -28 45 0
-46 -37 0
-46 -10 0
37 10 46 0
-45 46 -47 0
45 -46 -47 0
-45 -46 47 0
45 46 47 0
48 42 0
48 -47 0
-42 47 -48 0
-2 37 -49 0
2 -37 -49 0
-2 -37 49 0
2 37 49 0
50 -3 -51 0
-50 3 -51 0
50 3 51 0
-50 -3 51 0
52 -51 0
52 -51 0
51 -52 0
-54 -53 0
-54 43 0
53 -43 54 0
-55 -28 0
-55 -54 0
28 54 55 0
52 55 -56 0
-52 -55 -56 0
52 -55 56 0
-52 55 56 0
49 56 -57 0
-49 -56 -57 0
49 -56 57 0
-49 56 57 0
-12 26 -58 0
12 -26 -58 0
-12 -26 58 0
12 26 58 0
-59 2 0
-59 50 0
-2 -50 59 0
60 -58 0
60 -59 0
58 59 -60 0
2 50 -61 0
-2 -50 -61 0
2 -50 61 0
-2 50 61 0
62 -61 0
62 51 0
61 -51 -62 0
35 -62 -63 0
-35 62 -63 0
35 62 63 0
-35 -62 63 0
-64 37 0
-64 63 0
-37 -63 64 0
60 64 -65 0
-60 -64 -65 0
60 -64 65 0
-60 64 65 0
-67 3 0
-67 -66 0
-3 66 67 0
31 -67 -68 0
-31 67 -68 0
31 67 68 0
-31 -67 68 0
-69 -68 0
-69 59 0
68 -59 69 0
-69 36 -70 0
69 -36 -70 0
-69 -36 70 0
69 36 70 0
-71 -65 0
-71 70 0
65 -70 71 0
-25 -43 -72 0
25 43 -72 0
-25 43 72 0
25 -43 72 0
73 45 0
73 72 0
-45 -72 -73 0
74 -71 0
74 -73 0
71 73 -74 0
75 57 0
75 74 0
-57 -74 -75 0
-48 -75 -76 0
48 75 -76 0
-48 75 76 0
48 -75 76 0
-77 9 0
-77 27 0
-9 -27 77 0
-78 -51 0
-78 -54 0
51 54 78 0
-79 12 0
-79 5 0
-12 -5 79 0
80 78 0
80 79 0
-78 -79 -80 0
-81 -6 0
-81 4 0
6 -4 81 0
82 -80 0
82 -81 0
80 81 -82 0
83 -77 0
83 82 0
77 -82 -83 0
-18 -32 -84 0
18 32 -84 0
-18 32 84 0
18 -32 84 0
-85 52 0
-85 -84 0
-52 84 85 0
86 83 0
86 -85 0
-83 85 -86 0
-87 39 0
-87 34 0
-39 -34 87 0
6 16 -88 0
-6 -16 -88 0
6 -16 88 0
-6 16 88 0
-88 -8 -89 0
88 8 -89 0
-88 8 89 0
88 -8 89 0
90 -87 0
90 -89 0
87 89 -90 0
-51 38 -91 0
51 -38 -91 0
-51 -38 91 0
51 38 91 0
92 91 0
92 -35 0
-91 35 -92 0
-29 -12 -93 0
29 12 -93 0
-29 12 93 0
29 -12 93 0
-94 -3 0
-94 -11 0
3 11 94 0
95 -26 0
95 94 0
26 -94 -95 0
44 -95 -96 0
-44 95 -96 0
44 95 96 0
-44 -95 96 0
93 -96 -97 0
-93 96 -97 0
93 96 97 0
-93 -96 97 0
98 92 0
98 -97 0
-92 97 -98 0
-99 -36 0
-99 -56 0
36 56 99 0
-100 -98 0
-100 99 0
98 -99 100 0
-101 90 0
-101 100 0
-90 -100 101 0
102 36 0
102 -2 0
-36 2 -102 0
103 -102 0
103 38 0
102 -38 -103 0
104 -1 0
104 -51 0
1 51 -104 0
-32 11 -105 0
32 -11 -105 0
-32 -11 105 0
32 11 105 0
106 105 0
106 54 0
-105 -54 -106 0
104 106 -107 0
-104 -106 -107 0
104 -106 107 0
-104 106 107 0
107 4 -108 0
-107 -4 -108 0
107 -4 108 0
-107 4 108 0
109 -103 0
109 108 0
103 -108 -109 0
-110 -109 0
-110 8 0
109 -8 110 0
101 110 -111 0
-101 -110 -111 0
101 -110 111 0
-101 110 111 0
-32 -31 -112 0
32 31 -112 0
-32 31 112 0
32 -31 112 0
-113 112 0
-113 37 0
-112 -37 113 0
-114 -111 0
-114 -113 0
111 113 114 0
-61 -3 -115 0
61 3 -115 0
-61 3 115 0
61 -3 115 0
29 -26 -116 0
-29 26 -116 0
29 26 116 0
-29 -26 116 0
117 -29 0
117 116 0
29 -116 -117 0
-118 19 0
-118 -52 0
-19 52 118 0
119 43 0
119 -118 0
-43 118 -119 0
-120 -24 0
-120 -119 0
24 119 120 0
117 120 -121 0
-117 -120 -121 0
117 -120 121 0
-117 120 121 0
13 -34 -122 0
-13 34 -122 0
13 34 122 0
-13 -34 122 0
-34 17 -123 0
34 -17 -123 0
-34 -17 123 0
34 17 123 0
124 -122 0
124 123 0
122 -123 -124 0
125 121 0
125 -124 0
-121 124 -125 0
126 115 0
126 -125 0
-115 125 -126 0
127 -10 0
127 27 0
10 -27 -127 0
127 68 -128 0
-127 -68 -128 0
127 -68 128 0
-127 68 128 0
129 128 0
129 67 0
-128 -67 -129 0
130 56 0
130 5 0
-56 -5 -130 0
-131 130 0
-131 -43 0
-130 43 131 0
132 1 0
132 -131 0
-1 131 -132 0
133 -26 0
133 -10 0
26 10 -133 0
-134 133 0
-134 6 0
-133 -6 134 0
135 134 0
135 8 0
-134 -8 -135 0
-136 -24 0
-136 -135 0
24 135 136 0
137 -136 0
137 -1 0
136 1 -137 0
138 12 0
138 8 0
-12 -8 -138 0
-139 -138 0
-139 9 0
138 -9 139 0
-137 139 -140 0
137 -139 -140 0
-137 -139 140 0
137 139 140 0
-132 140 -141 0
132 -140 -141 0
-132 -140 141 0
132 140 141 0
-142 -129 0
-142 141 0
129 -141 142 0
-143 -126 0
-143 -142 0
126 142 143 0
-144 120 0
-144 -134 0
-120 134 144 0
54 -37 -145 0
-54 37 -145 0
54 37 145 0
-54 -37 145 0
-146 145 0
-146 58 0
-145 -58 146 0
12 5 -147 0
-12 -5 -147 0
12 -5 147 0
-12 5 147 0
146 -147 -148 0
-146 147 -148 0
146 147 148 0
-146 -147 148 0
149 -144 0
149 148 0
144 -148 -149 0
150 -143 0
150 149 0
143 -149 -150 0
151 -114 0
151 150 0
114 -150 -151 0
86 -151 -152 0
-86 151 -152 0
86 151 152 0
-86 -151 152 0
76 -152 -153 0
-76 152 -153 0
76 152 153 0
-76 -152 153 0
-154 -105 0
-154 91 0
105 -91 154 0
35 -154 -155 0
-35 154 -155 0
35 154 155 0
-35 -154 155 0
-156 14 0
-156 43 0
-14 -43 156 0
157 1 0
157 -145 0
-1 145 -157 0
-10 -55 -158 0
10 55 -158 0
-10 55 158 0
10 -55 158 0
159 157 0
159 158 0
-157 -158 -159 0
31 -24 -160 0
-31 24 -160 0
31 24 160 0
-31 -24 160 0
-161 -25 0
-161 -160 0
25 160 161 0
-35 162 -163 0
35 -162 -163 0
-35 -162 163 0
35 162 163 0
161 163 -164 0
-161 -163 -164 0
161 -163 164 0
-161 163 164 0
165 -61 0
165 28 0
61 -28 -165 0
-166 1 0
-166 -37 0
-1 37 166 0
167 56 0
167 166 0
-56 -166 -167 0
-168 165 0
-168 -167 0
-165 167 168 0
169 164 0
169 168 0
-164 -168 -169 0
-170 -159 0
-170 -169 0
159 169 170 0
171 69 0
171 31 0
-69 -31 -171 0
172 171 0
172 -95 0
-171 95 -172 0
-173 134 0
-173 45 0
-134 -45 173 0
174 -25 0
174 14 0
25 -14 -174 0
145 -174 -175 0
-145 174 -175 0
145 174 175 0
-145 -174 175 0
175 -38 -176 0
-175 38 -176 0
175 38 176 0
-175 -38 176 0
177 173 0
177 -176 0
-173 176 -177 0
-137 -3 -178 0
137 3 -178 0
-137 3 178 0
137 -3 178 0
-178 122 -179 0
178 -122 -179 0
-178 -122 179 0
178 122 179 0
180 -177 0
180 179 0
177 -179 -180 0
181 3 0
181 12 0
-3 -12 -181 0
182 -180 0
182 -181 0
180 181 -182 0
-172 -182 -183 0
172 182 -183 0
-172 182 183 0
172 -182 183 0
184 -170 0
184 183 0
170 -183 -184 0
185 156 0
185 -184 0
-156 184 -185 0
146 -17 -186 0
-146 17 -186 0
146 17 186 0
-146 -17 186 0
-187 186 0
-187 11 0
-186 -11 187 0
178 134 -188 0
-178 -134 -188 0
178 -134 188 0
-178 134 188 0
189 176 0
189 188 0
-176 -188 -189 0
-190 -56 0
-190 -39 0
56 39 190 0
189 190 -191 0
-189 -190 -191 0
189 -190 191 0
-189 190 191 0
192 187 0
192 191 0
-187 -191 -192 0
193 -185 0
193 -192 0
185 192 -193 0
-194 -36 0
-194 5 0
36 -5 194 0
195 194 0
195 79 0
-194 -79 -195 0
193 195 -196 0
-193 -195 -196 0
193 -195 196 0
-193 195 196 0
197 -155 0
197 -196 0
155 196 -197 0
198 122 0
198 43 0
-122 -43 -198 0
-199 198 0
-199 -40 0
-198 40 199 0
-200 199 0
-200 38 0
-199 -38 200 0
-201 -197 0
-201 200 0
197 -200 201 0
59 54 -202 0
-59 -54 -202 0
59 -54 202 0
-59 54 202 0
203 -95 0
203 202 0
95 -202 -203 0
203 128 -204 0
-203 -128 -204 0
203 -128 204 0
-203 128 204 0
205 -72 0
205 136 0
72 -136 -205 0
134 44 -206 0
-134 -44 -206 0
134 -44 206 0
-134 44 206 0
-207 -50 0
-207 56 0
50 -56 207 0
208 121 0
208 207 0
-121 -207 -208 0
209 206 0
209 -208 0
-206 208 -209 0
210 -205 0
210 -209 0
205 209 -210 0
211 199 0
211 -134 0
-199 134 -211 0
-212 -210 0
-212 -211 0
210 211 212 0
-213 -13 0
-213 5 0
13 -5 213 0
214 213 0
214 -25 0
-213 25 -214 0
215 2 0
215 34 0
-2 -34 -215 0
-216 4 0
-216 50 0
-4 -50 216 0
217 -1 0
217 -216 0
1 216 -217 0
-218 -215 0
-218 -217 0
215 217 218 0
-219 -214 0
-219 -218 0
214 218 219 0
-220 6 0
-220 -61 0
-6 61 220 0
-221 -219 0
-221 220 0
219 -220 221 0
-222 212 0
-222 221 0
-212 -221 222 0
204 222 -223 0
-204 -222 -223 0
204 -222 223 0
-204 222 223 0
10 53 -224 0
-10 -53 -224 0
10 -53 224 0
-10 53 224 0
224 36 -225 0
-224 -36 -225 0
224 -36 225 0
-224 36 225 0
226 -122 0
226 -225 0
122 225 -226 0
-134 131 -227 0
134 -131 -227 0
-134 -131 227 0
134 131 227 0
228 227 0
228 -61 0
-227 61 -228 0
-30 72 -229 0
30 -72 -229 0
-30 -72 229 0
30 72 229 0
-230 -228 0
-230 229 0
228 -229 230 0
231 226 0
231 230 0
-226 -230 -231 0
-175 -216 -232 0
175 216 -232 0
-175 216 232 0
175 -216 232 0
233 -232 0
233 224 0
232 -224 -233 0
-234 -34 0
-234 -217 0
34 217 234 0
-235 227 0
-235 -38 0
-227 38 235 0
-236 160 0
-236 -235 0
-160 235 236 0
237 -236 0
237 -10 0
236 10 -237 0
-238 -234 0
-238 237 0
234 -237 238 0
239 -233 0
239 -238 0
233 238 -239 0
240 -231 0
240 239 0
231 -239 -240 0
241 19 0
241 24 0
-19 -24 -241 0
95 122 -242 0
-95 -122 -242 0
95 -122 242 0
-95 122 242 0
-242 167 -243 0
242 -167 -243 0
-242 -167 243 0
242 167 243 0
241 243 -244 0
-241 -243 -244 0
241 -243 244 0
-241 243 244 0
-240 -244 -245 0
240 244 -245 0
-240 244 245 0
240 -244 245 0
246 202 0
246 19 0
-202 -19 -246 0
247 -102 0
247 -79 0
102 79 -247 0
-248 -246 0
-248 -247 0
246 247 248 0
-199 55 -249 0
199 -55 -249 0
-199 -55 249 0
199 55 249 0
250 -248 0
250 249 0
248 -249 -250 0
-251 245 0
-251 -250 0
-245 250 251 0
252 -223 0
252 -251 0
223 251 -252 0
-253 -44 0
-253 -131 0
44 131 253 0
-27 30 -254 0
27 -30 -254 0
-27 -30 254 0
27 30 254 0
-254 8 -255 0
254 -8 -255 0
-254 -8 255 0
254 8 255 0
256 253 0
256 255 0
-253 -255 -256 0
257 -252 0
257 -256 0
252 256 -257 0
-258 -225 0
-258 37 0
225 -37 258 0
-259 26 0
-259 -105 0
-26 105 259 0
260 -34 0
260 259 0
34 -259 -260 0
-261 59 0
-261 260 0
-59 -260 261 0
258 -261 -262 0
-258 261 -262 0
258 261 262 0
-258 -261 262 0
-38 225 -263 0
38 -225 -263 0
-38 -225 263 0
38 225 263 0
-264 262 0
-264 263 0
-262 -263 264 0
265 166 0
265 93 0
-166 -93 -265 0
-266 -265 0
-266 167 0
265 -167 266 0
103 -10 -267 0
-103 10 -267 0
103 10 267 0
-103 -10 267 0
268 -49 0
268 -106 0
49 106 -268 0
-269 268 0
-269 38 0
-268 -38 269 0
-270 269 0
-270 -118 0
-269 118 270 0
-271 -267 0
-271 -270 0
267 270 271 0
272 -266 0
272 271 0
266 -271 -272 0
-264 -272 -273 0
264 272 -273 0
-264 272 273 0
264 -272 273 0
215 227 -274 0
-215 -227 -274 0
215 -227 274 0
-215 227 274 0
-275 -274 0
-275 -43 0
274 43 275 0
-276 273 0
-276 -275 0
-273 275 276 0
-277 -146 0
-277 6 0
146 -6 277 0
-278 277 0
-278 -52 0
-277 52 278 0
279 278 0
279 -36 0
-278 36 -279 0
-280 279 0
-280 188 0
-279 -188 280 0
280 18 -281 0
-280 -18 -281 0
280 -18 281 0
-280 18 281 0
69 281 -282 0
-69 -281 -282 0
69 -281 282 0
-69 281 282 0
-276 282 -283 0
276 -282 -283 0
-276 -282 283 0
276 282 283 0
-284 -11 0
-284 35 0
11 -35 284 0
285 283 0
285 284 0
-283 -284 -285 0
-286 -257 0
-286 285 0
257 -285 286 0
287 18 0
287 -260 0
-18 260 -287 0
288 -59 0
288 -227 0
59 227 -288 0
-289 287 0
-289 -288 0
-287 288 289 0
290 -286 0
290 289 0
286 -289 -290 0
291 6 0
291 -102 0
-6 102 -291 0
292 10 0
292 -66 0
-10 66 -292 0
293 23 0
293 -292 0
-23 292 -293 0
-294 291 0
-294 293 0
-291 -293 294 0
-295 216 0
-295 -188 0
-216 188 295 0
-296 88 0
-296 295 0
-88 -295 296 0
-297 24 0
-297 34 0
-24 -34 297 0
38 297 -298 0
-38 -297 -298 0
38 -297 298 0
-38 297 298 0
-299 -277 0
-299 -298 0
277 298 299 0
-300 296 0
-300 -299 0
-296 299 300 0
301 -294 0
301 -300 0
294 300 -301 0
-290 301 -302 0
290 -301 -302 0
-290 -301 302 0
290 301 302 0
201 -302 -303 0
-201 302 -303 0
201 302 303 0
-201 -302 303 0
-304 153 0
-304 -303 0
-153 303 304 0
118 132 -68 277 -278 -105 -148 0
-64 -77 145 -13 52 39 272 -175 -94 0
-194 -200 -76 277 0
8 -114 287 10 173 -72 0
71 -219 0
-234 64 -89 26 262 -248 302 -198 -77 0
-138 -131 -85 117 -43 20 0
17 291 219 0
183 -158 56 0
293 -209 97 72 290 153 -203 -6 0
-217 268 -140 -168 125 -250 -144 0
140 93 -215 -126 0
-75 -201 0
43 213 222 -13 -5 -276 -116 0
-30 94 130 -117 0
284 -198 -120 227 0
-170 61 71 -277 0
94 -53 57 -256 -168 -192 117 160 0
221 -28 241 57 -182 -36 215 158 0
229 267 304 -136 -76 0
181 138 -70 -147 269 -40 302 -250 263 0
-9 238 -297 0
299 -222 -189 87 49 239 0
-14 -103 0
291 128 0
-15 -118 -208 -119 -103 -227 0
-76 100 -221 -52 174 -272 24 270 233 -146 0
243 -34 200 -30 -14 134 -226 0
-216 -43 0
287 -38 152 -216 -243 -239 -135 162 297 0
-65 -297 165 0
-91 -166 -253 -256 202 69 248 0
-202 -5 -294 -150 0
119 299 143 -228 0
-262 91 0
-57 -169 -285 -180 71 0
-278 252 202 90 0
-238 -142 229 43 0
-124 -217 0
-108 -285 125 81 41 116 -223 -291 -139 0
-61 37 -25 -148 142 -101 0
-213 244 -39 -99 -189 255 -291 -31 -140 -6 0
-287 283 76 -294 200 -235 256 250 -91 -243 0
-189 118 0
-269 22 163 40 -71 -241 -140 7 -113 124 0
-97 -213 -197 129 249 11 267 -78 272 0
-126 -49 -184 -291 -63 -98 -220 72 -279 44 0
83 175 -241 -61 -64 -24 -26 -116 0
-118 -140 -189 -56 48 49 46 -128 74 0
105 17 -183 62 28 176 86 217 33 0
185 249 124 0
52 16 0
183 -251 269 -126 170 146 -271 200 123 0
-42 73 -26 -193 0
-119 -253 0
192 -32 118 -99 -81 -167 58 220 91 0
-204 -211 -261 -197 262 250 -217 -67 0
143 237 -46 232 -23 -255 131 -287 -300 0
73 -58 154 254 -133 -297 -239 32 182 -81 0
-46 -47 -237 -223 -230 -100 138 -142 0
196 -94 -97 -138 -295 283 194 274 100 0
12 149 -1 47 -146 100 134 -156 -290 0
85 206 57 224 280 -230 -108 0
213 28 -53 265 288 0
-16 -258 -248 0
162 281 236 138 76 -209 118 101 39 0
-102 12 -304 -72 248 0
-134 43 199 92 133 -73 45 0
-39 -60 -243 166 -165 -153 -272 -87 0
68 263 -11 0
270 44 -58 0
-107 -37 14 0
-214 -239 112 230 -262 198 153 -225 0
-108 76 57 195 297 -17 -10 0
-263 281 195 -49 288 -47 69 -293 268 0
-213 293 -128 100 -204 -203 1 -261 52 -300 0
3 -69 -54 67 295 0
-105 -147 172 -34 71 0
42 94 -183 -145 -300 -105 -10 -273 -17 -47 0
-250 -282 -98 -28 294 0
76 -241 122 59 189 276 0
204 114 265 -214 31 -89 157 150 18 0
302 -194 86 216 39 -59 -102 0
92 255 154 -57 -293 105 269 170 0
279 -66 236 134 -102 -122 -99 -78 -9 -41 0
244 -190 -251 148 0
96 26 235 0
242 -180 -243 206 126 -270 -149 0
75 -34 -233 0
177 -223 -254 0
-184 -303 -250 -165 -156 146 100 261 0
-260 -281 135 240 0
5 -213 -263 0
36 -81 152 -301 183 22 8 280 0
-87 162 33 202 153 54 -159 296 0
-58 -26 98 -52 -38 187 161 162 269 164 0
-148 -171 0
-143 114 43 -202 -105 0
288 237 0
-69 -118 185 -46 277 169 0
-62 113 156 1 148 -235 0
-296 -165 16 0
137 -2 -292 0
276 -2 197 -214 0
-149 -17 39 215 -177 78 -56 145 217 0
-256 -81 257 -65 0
97 -141 118 0
32 181 238 261 -140 -121 0
37 -285 153 135 -261 58 291 267 219 0
264 -226 65 68 -28 282 87 -214 0
49 -208 -17 209 0
74 -226 0
18 -218 10 0
189 23 299 97 206 108 -52 -236 242 0
-137 -238 85 -202 54 -271 -71 -166 55 141 0
-301 -298 -107 147 44 63 -85 0
-56 141 297 -16 -121 -95 -89 0
41 113 -264 -246 0
-285 -135 -31 52 53 -1 222 -152 0
-108 -149 0
302 7 62 0
-266 -41 165 303 -227 176 -208 201 0
-254 -59 112 60 -213 149 141 70 -199 -61 0
86 -294 -223 -266 -292 55 -249 -126 -270 0
-16 -67 163 -134 63 54 102 0
113 48 89 273 -219 -41 164 -173 0
219 157 266 -34 0
33 236 174 51 42 -155 -59 0
-188 -42 -193 92 -237 -171 -31 73 30 288 0
-211 280 -11 117 0
-17 149 -235 0
86 -291 -128 -75 -43 0
94 37 178 -52 208 -228 -164 250 -209 0
193 123 -154 184 98 72 257 92 38 0
-173 -9 -60 0
102 139 -174 -180 -265 0
-190 225 -114 64 117 -162 0
-82 116 -46 -158 0
92 -249 0
-294 -132 -93 286 -284 155 0
49 -35 43 0
-114 186 -289 47 122 -112 92 115 -24 -95 0
243 204 -166 0
94 252 -100 -183 185 0
-183 -170 -136 -275 -71 40 146 -159 242 0
-11 194 -119 -73 -208 179 -91 0
-105 -143 82 186 299 -277 -1 -26 0
-60 -55 -6 5 185 180 158 -67 -195 10 0
237 -168 99 -54 -180 85 0
-93 -94 -241 67 -296 27 -277 84 -170 -179 0
-36 235 54 40 -236 -23 250 0
-202 -250 226 168 191 -262 -241 -83 0
-294 213 182 70 61 2 -87 0
-297 148 137 -61 12 -50 -256 225 -278 0
50 179 -196 49 -11 -70 0
284 55 160 -92 131 -231 -156 62 -171 0
-232 -98 28 -54 281 -297 -164 -291 0
-87 -253 -273 38 59 51 -94 0
233 -14 -268 148 -184 0
304 0
